150
0 90 37 55 71 145 119 139 35 89 
110 137 44 133 75 17 138 121 67 34 
52 129 22 103 36 6 113 56 32 28 
40 96 63 47 23 125 80 101 126 61 
83 13 123 16 42 54 15 77 95 46 
50 60 14 57 5 70 127 128 94 100 
117 29 12 4 48 33 106 93 76 122 
24 31 120 107 38 116 18 39 68 149 
59 64 11 10 78 131 135 19 111 142 
81 85 45 86 7 53 30 141 88 43 
79 97 136 130 73 69 49 74 91 9 
2 114 112 147 99 26 25 82 102 62 
105 20 118 92 104 115 21 58 124 84 
3 143 146 144 66 98 1 108 41 87 
140 72 51 134 109 27 132 8 148 65 
